N = 9;
K = 2;
Distance=[|0,41,98,120,23,157,35,85,82,151
|41,0,108,129,62,199,51,122,123,191
|98,108,0,22,111,194,132,86,114,204
|120,129,22,0,133,206,155,99,129,219
|23,62,111,133,0,137,32,78,67,129
|157,199,194,206,137,0,160,108,84,32
|35,51,132,155,32,160,0,110,98,147
|85,122,86,99,78,108,110,0,33,120
|82,123,114,129,67,84,98,33,0,90
|151,191,204,219,129,32,147,120,90,0|];